(declare-fun Constructed_Argument_t () String)
(declare-fun Constructed_Argument_2_t () String)
(declare-fun CreateAsClass () Bool)
(declare-fun Constructed_Argument_2 () String)
(declare-fun Constructed_Argument () String)
(assert (= Constructed_Argument_t (str.++ (seq.unit #x73) (seq.unit #x74) (seq.unit #x72) (seq.unit #x69) (seq.unit #x6e) (seq.unit #x67))))
(assert (= Constructed_Argument_2_t (str.++ (seq.unit #x73) (seq.unit #x74) (seq.unit #x72) (seq.unit #x69) (seq.unit #x6e) (seq.unit #x67))))
(assert CreateAsClass)
(assert (= "" Constructed_Argument_2))
(assert (not (<= (to_real (str.len Constructed_Argument)) 256.0)))
(check-sat)
